
Gurobi 6.5.2 (linux64) logging started Mon Aug 29 10:58:05 2016

Optimize a model with 201 rows, 2575 columns and 5447 nonzeros
Coefficient statistics:
  Matrix range    [1e+00, 2e+00]
  Objective range [1e+00, 1e+02]
  Bounds range    [1e+00, 1e+00]
  RHS range       [1e+00, 1e+00]
Found heuristic solution: objective 2405
Presolve removed 52 rows and 6 columns
Presolve time: 0.01s
Presolved: 149 rows, 2569 columns, 5223 nonzeros
Variable types: 0 continuous, 2569 integer (2569 binary)

Root relaxation: objective 8.501667e+02, 132 iterations, 0.00 seconds

    Nodes    |    Current Node    |     Objective Bounds      |     Work
 Expl Unexpl |  Obj  Depth IntInf | Incumbent    BestBd   Gap | It/Node Time

     0     0  850.16667    0   49 2405.00000  850.16667  64.7%     -    0s
H    0     0                    1146.0000000  850.16667  25.8%     -    0s
H    0     0                     940.0000000  850.16667  9.56%     -    0s
     0     0  897.39394    0   48  940.00000  897.39394  4.53%     -    0s
     0     0  909.33333    0   30  940.00000  909.33333  3.26%     -    0s
     0     0  909.33333    0   49  940.00000  909.33333  3.26%     -    0s
     0     0  909.33333    0   51  940.00000  909.33333  3.26%     -    0s
     0     0  909.50000    0   53  940.00000  909.50000  3.24%     -    0s
H    0     0                     936.0000000  909.50000  2.83%     -    0s
     0     0  914.80000    0   30  936.00000  914.80000  2.26%     -    0s
     0     0  914.80000    0   48  936.00000  914.80000  2.26%     -    0s
     0     0  914.80000    0   48  936.00000  914.80000  2.26%     -    0s
     0     0  914.80000    0   25  936.00000  914.80000  2.26%     -    0s
H    0     0                     927.0000000  914.80000  1.32%     -    0s
     0     0  916.81250    0   34  927.00000  916.81250  1.10%     -    0s
     0     0  916.81250    0   43  927.00000  916.81250  1.10%     -    0s
     0     0  916.81250    0   45  927.00000  916.81250  1.10%     -    0s
     0     0  916.81250    0   18  927.00000  916.81250  1.10%     -    0s
     0     0  918.06275    0   68  927.00000  918.06275  0.96%     -    0s
     0     0  918.18511    0   72  927.00000  918.18511  0.95%     -    0s
     0     0  918.50000    0   12  927.00000  918.50000  0.92%     -    0s
     0     0  919.11111    0   41  927.00000  919.11111  0.85%     -    0s
     0     0  919.50000    0    2  927.00000  919.50000  0.81%     -    0s
     0     0  919.50000    0    2  927.00000  919.50000  0.81%     -    0s
     0     0  919.50000    0   42  927.00000  919.50000  0.81%     -    0s
     0     0  919.50000    0   32  927.00000  919.50000  0.81%     -    0s
     0     0  919.50000    0   41  927.00000  919.50000  0.81%     -    0s
     0     0  920.25000    0   13  927.00000  920.25000  0.73%     -    0s
     0     0  920.33333    0   14  927.00000  920.33333  0.72%     -    0s
     0     0  920.50000    0    8  927.00000  920.50000  0.70%     -    0s
     0     0  920.72727    0   51  927.00000  920.72727  0.68%     -    0s
     0     0  920.75000    0   13  927.00000  920.75000  0.67%     -    0s
     0     0  920.75000    0   13  927.00000  920.75000  0.67%     -    0s
     0     0  920.75000    0   36  927.00000  920.75000  0.67%     -    0s
     0     0  920.75000    0   19  927.00000  920.75000  0.67%     -    0s
     0     0  920.75000    0   35  927.00000  920.75000  0.67%     -    0s
     0     0  920.75000    0   17  927.00000  920.75000  0.67%     -    0s
     0     0  920.75000    0   15  927.00000  920.75000  0.67%     -    0s
     0     0  920.83333    0   41  927.00000  920.83333  0.67%     -    0s
     0     0  920.83333    0   41  927.00000  920.83333  0.67%     -    0s
     0     2  920.83333    0   41  927.00000  920.83333  0.67%     -    0s
*   23     4               8     925.0000000  921.00000  0.43%   4.2    0s

Cutting planes:
  Gomory: 31
  Cover: 61
  MIR: 7
  Zero half: 6

Explored 60 nodes (1824 simplex iterations) in 0.47 seconds
Thread count was 8 (of 8 available processors)

Optimal solution found (tolerance 1.00e-04)
Best objective 9.250000000000e+02, best bound 9.250000000000e+02, gap 0.0%
